50
285
1	95	13
2	69	15
3	60	11
4	88	11
5	58	10
6	17	10
7	55	17
8	8	11
9	35	15
10	44	11
11	61	14
12	89	15
13	28	18
14	47	15
15	63	11
16	33	13
17	21	13
18	1	14
19	70	15
20	19	16
21	26	14
22	33	15
23	32	12
24	48	19
25	50	15
26	51	12
27	46	14
28	57	16
29	50	10
30	31	15
31	31	11
32	91	16
33	45	10
34	68	18
35	58	19
36	56	14
37	57	10
38	15	14
39	12	12
40	50	19
41	31	16
42	21	18
43	37	13
44	42	12
45	75	17
46	97	14
47	0	14
48	58	11
49	12	16
50	45	14